NbOCl2                                  
   1.00000000000000     
     6.7664375064569349   -0.0016254125424681   -0.0012357741889326
     5.6445433665319635    3.7314620932128437   -0.0012357741889164
    -1.7452758118440432   -0.5245027615337557    6.4652371472738714
   Nb   Cl   O 
     2     4     2
d
  0.0396754424426566  0.9598476288863192  0.7194949208070027
  0.0401523711136808  0.9603245685573479  0.2805050791929973
  0.8578269788614878  0.8729832349625329  0.9304782090841986
  0.1270167650374669  0.1421730211385122  0.0695217909158015
  0.8438803805796962  0.8455587543536075  0.4174451266934851
  0.1544412456463924  0.1561196194203041  0.5825548733065150
  0.5035794060615251  0.4945826237429087  0.7279330571368856
  0.5054173762570912  0.4964205939384750  0.2720669428631141
 
  0.00000000E+00  0.00000000E+00  0.00000000E+00
  0.00000000E+00  0.00000000E+00  0.00000000E+00
  0.00000000E+00  0.00000000E+00  0.00000000E+00
  0.00000000E+00  0.00000000E+00  0.00000000E+00
  0.00000000E+00  0.00000000E+00  0.00000000E+00
  0.00000000E+00  0.00000000E+00  0.00000000E+00
  0.00000000E+00  0.00000000E+00  0.00000000E+00
  0.00000000E+00  0.00000000E+00  0.00000000E+00
